p edge 55 769
e 2 1
e 3 1
e 4 2
e 6 1
e 6 3
e 6 4
e 7 1
e 7 2
e 7 3
e 7 4
e 7 5
e 7 6
e 8 1
e 8 3
e 8 4
e 8 5
e 8 7
e 9 1
e 9 5
e 9 6
e 10 2
e 10 5
e 10 8
e 11 2
e 11 5
e 11 7
e 11 8
e 11 9
e 12 2
e 12 3
e 12 4
e 12 5
e 12 6
e 12 7
e 12 8
e 12 9
e 12 10
e 12 11
e 13 2
e 13 8
e 13 10
e 13 11
e 13 12
e 14 7
e 14 8
e 14 10
e 14 11
e 14 12
e 14 13
e 15 2
e 15 7
e 15 9
e 15 11
e 15 13
e 16 1
e 16 2
e 16 3
e 16 4
e 16 5
e 16 7
e 16 8
e 16 9
e 16 10
e 16 11
e 16 14
e 17 3
e 17 5
e 17 6
e 17 7
e 17 9
e 17 10
e 17 11
e 17 13
e 17 14
e 17 16
e 18 3
e 18 4
e 18 6
e 18 9
e 18 10
e 18 11
e 18 12
e 18 14
e 19 3
e 19 4
e 19 6
e 19 7
e 19 8
e 19 12
e 19 14
e 19 18
e 20 2
e 20 6
e 20 7
e 20 8
e 20 10
e 20 12
e 20 13
e 20 15
e 20 16
e 20 19
e 21 2
e 21 3
e 21 7
e 21 9
e 21 12
e 21 13
e 21 15
e 21 17
e 21 20
e 22 1
e 22 2
e 22 3
e 22 5
e 22 7
e 22 8
e 22 9
e 22 10
e 22 15
e 22 17
e 22 19
e 22 20
e 22 21
e 23 2
e 23 3
e 23 4
e 23 7
e 23 9
e 23 10
e 23 11
e 23 12
e 23 14
e 23 15
e 23 18
e 23 19
e 23 20
e 23 21
e 23 22
e 24 1
e 24 3
e 24 4
e 24 5
e 24 9
e 24 10
e 24 11
e 24 12
e 24 13
e 24 16
e 24 19
e 24 20
e 25 1
e 25 6
e 25 8
e 25 9
e 25 13
e 25 17
e 25 18
e 25 20
e 25 21
e 25 22
e 26 2
e 26 5
e 26 6
e 26 11
e 26 13
e 26 16
e 26 18
e 26 19
e 26 20
e 26 21
e 26 24
e 26 25
e 27 2
e 27 4
e 27 6
e 27 7
e 27 11
e 27 14
e 27 15
e 27 16
e 27 18
e 27 19
e 27 20
e 27 22
e 27 23
e 27 25
e 27 26
e 28 1
e 28 3
e 28 4
e 28 5
e 28 6
e 28 7
e 28 9
e 28 11
e 28 14
e 28 17
e 28 19
e 28 22
e 28 25
e 28 26
e 28 27
e 29 3
e 29 4
e 29 6
e 29 10
e 29 12
e 29 16
e 29 17
e 29 19
e 29 20
e 29 21
e 29 23
e 29 24
e 29 26
e 29 27
e 29 28
e 30 2
e 30 3
e 30 4
e 30 5
e 30 6
e 30 9
e 30 10
e 30 11
e 30 13
e 30 16
e 30 17
e 30 19
e 30 21
e 30 25
e 30 27
e 30 28
e 31 1
e 31 2
e 31 4
e 31 6
e 31 8
e 31 9
e 31 10
e 31 11
e 31 12
e 31 13
e 31 14
e 31 17
e 31 19
e 31 20
e 31 22
e 31 25
e 31 26
e 31 27
e 31 28
e 31 30
e 32 1
e 32 2
e 32 3
e 32 5
e 32 6
e 32 7
e 32 10
e 32 11
e 32 15
e 32 17
e 32 19
e 32 20
e 32 24
e 32 25
e 32 27
e 32 30
e 32 31
e 33 1
e 33 2
e 33 4
e 33 5
e 33 6
e 33 7
e 33 8
e 33 9
e 33 10
e 33 11
e 33 12
e 33 13
e 33 15
e 33 17
e 33 19
e 33 21
e 33 22
e 33 23
e 33 26
e 33 29
e 33 30
e 34 2
e 34 4
e 34 6
e 34 10
e 34 13
e 34 15
e 34 19
e 34 22
e 34 23
e 34 24
e 34 27
e 34 28
e 34 30
e 34 31
e 34 33
e 35 1
e 35 2
e 35 4
e 35 5
e 35 6
e 35 8
e 35 9
e 35 11
e 35 16
e 35 18
e 35 19
e 35 20
e 35 23
e 35 24
e 35 28
e 35 31
e 35 32
e 35 34
e 36 2
e 36 3
e 36 6
e 36 7
e 36 8
e 36 12
e 36 13
e 36 16
e 36 17
e 36 18
e 36 23
e 36 25
e 36 26
e 36 27
e 36 28
e 36 31
e 36 33
e 36 34
e 36 35
e 37 2
e 37 5
e 37 6
e 37 8
e 37 9
e 37 11
e 37 15
e 37 16
e 37 17
e 37 19
e 37 20
e 37 22
e 37 24
e 37 27
e 37 31
e 37 34
e 37 35
e 38 1
e 38 2
e 38 3
e 38 5
e 38 7
e 38 9
e 38 13
e 38 14
e 38 17
e 38 19
e 38 21
e 38 22
e 38 23
e 38 25
e 38 27
e 38 28
e 38 29
e 38 30
e 38 31
e 38 33
e 38 36
e 39 2
e 39 3
e 39 4
e 39 5
e 39 6
e 39 7
e 39 8
e 39 10
e 39 11
e 39 14
e 39 16
e 39 19
e 39 20
e 39 21
e 39 22
e 39 25
e 39 28
e 39 29
e 39 32
e 39 33
e 39 34
e 39 37
e 40 4
e 40 5
e 40 6
e 40 10
e 40 12
e 40 13
e 40 14
e 40 15
e 40 17
e 40 19
e 40 20
e 40 21
e 40 22
e 40 23
e 40 25
e 40 26
e 40 28
e 40 32
e 40 33
e 40 36
e 40 37
e 40 38
e 41 2
e 41 3
e 41 4
e 41 5
e 41 7
e 41 8
e 41 9
e 41 10
e 41 12
e 41 13
e 41 15
e 41 16
e 41 18
e 41 20
e 41 22
e 41 23
e 41 26
e 41 27
e 41 29
e 41 31
e 41 33
e 41 35
e 41 37
e 41 40
e 42 2
e 42 3
e 42 4
e 42 6
e 42 9
e 42 14
e 42 16
e 42 17
e 42 18
e 42 20
e 42 22
e 42 23
e 42 24
e 42 27
e 42 29
e 42 30
e 42 31
e 42 33
e 42 36
e 42 38
e 42 40
e 42 41
e 43 2
e 43 10
e 43 13
e 43 14
e 43 16
e 43 18
e 43 19
e 43 20
e 43 22
e 43 23
e 43 24
e 43 25
e 43 28
e 43 30
e 43 31
e 43 36
e 43 37
e 43 40
e 44 4
e 44 7
e 44 8
e 44 11
e 44 14
e 44 15
e 44 16
e 44 17
e 44 18
e 44 19
e 44 22
e 44 23
e 44 24
e 44 29
e 44 32
e 44 33
e 44 34
e 44 37
e 44 39
e 44 40
e 44 41
e 44 42
e 44 43
e 45 6
e 45 7
e 45 8
e 45 11
e 45 25
e 45 26
e 45 28
e 45 29
e 45 30
e 45 31
e 45 36
e 45 37
e 45 38
e 45 40
e 45 42
e 46 5
e 46 8
e 46 10
e 46 11
e 46 15
e 46 19
e 46 21
e 46 24
e 46 25
e 46 26
e 46 27
e 46 29
e 46 33
e 46 35
e 46 37
e 46 38
e 46 40
e 46 41
e 46 42
e 46 43
e 47 4
e 47 6
e 47 7
e 47 8
e 47 9
e 47 11
e 47 14
e 47 16
e 47 17
e 47 20
e 47 21
e 47 22
e 47 23
e 47 25
e 47 27
e 47 29
e 47 32
e 47 34
e 47 36
e 47 38
e 47 41
e 47 43
e 47 45
e 47 46
e 48 5
e 48 7
e 48 8
e 48 10
e 48 12
e 48 14
e 48 15
e 48 17
e 48 18
e 48 19
e 48 20
e 48 21
e 48 31
e 48 36
e 48 37
e 48 39
e 48 42
e 49 1
e 49 2
e 49 4
e 49 7
e 49 11
e 49 12
e 49 14
e 49 15
e 49 17
e 49 20
e 49 29
e 49 31
e 49 33
e 49 35
e 49 37
e 49 41
e 49 43
e 49 44
e 49 45
e 49 48
e 50 6
e 50 7
e 50 9
e 50 15
e 50 17
e 50 18
e 50 19
e 50 20
e 50 21
e 50 24
e 50 26
e 50 28
e 50 31
e 50 32
e 50 33
e 50 34
e 50 35
e 50 37
e 50 42
e 50 46
e 50 48
e 51 1
e 51 4
e 51 6
e 51 7
e 51 9
e 51 11
e 51 12
e 51 13
e 51 15
e 51 18
e 51 19
e 51 23
e 51 24
e 51 26
e 51 27
e 51 28
e 51 30
e 51 31
e 51 32
e 51 36
e 51 38
e 51 39
e 51 41
e 51 43
e 51 44
e 51 47
e 51 48
e 51 49
e 51 50
e 52 3
e 52 8
e 52 9
e 52 11
e 52 14
e 52 21
e 52 22
e 52 23
e 52 24
e 52 26
e 52 28
e 52 29
e 52 30
e 52 31
e 52 32
e 52 35
e 52 37
e 52 38
e 52 40
e 52 41
e 52 42
e 52 44
e 52 45
e 52 46
e 52 47
e 52 48
e 52 50
e 52 51
e 53 1
e 53 2
e 53 4
e 53 5
e 53 6
e 53 7
e 53 15
e 53 16
e 53 18
e 53 20
e 53 21
e 53 22
e 53 23
e 53 24
e 53 25
e 53 26
e 53 27
e 53 28
e 53 30
e 53 31
e 53 37
e 53 38
e 53 39
e 53 42
e 53 43
e 53 44
e 53 45
e 53 48
e 53 52
e 54 3
e 54 9
e 54 10
e 54 13
e 54 14
e 54 16
e 54 18
e 54 20
e 54 28
e 54 29
e 54 30
e 54 33
e 54 34
e 54 35
e 54 37
e 54 40
e 54 41
e 54 42
e 54 43
e 54 44
e 54 48
e 54 51
e 55 2
e 55 6
e 55 7
e 55 9
e 55 12
e 55 13
e 55 14
e 55 15
e 55 16
e 55 17
e 55 18
e 55 19
e 55 20
e 55 21
e 55 22
e 55 23
e 55 24
e 55 26
e 55 27
e 55 28
e 55 29
e 55 33
e 55 34
e 55 35
e 55 36
e 55 42
e 55 43
e 55 44
e 55 45
e 55 49
e 55 50
e 55 53
